c graph2
p edge 15 60
e 1 2
e 2 14
e 3 10
e 4 13
e 5 14
e 6 9
e 7 4
e 8 4
e 9 3
e 10 11
e 11 6
e 12 11
e 13 14
e 14 10
e 15 10
e 10 2
e 11 5
e 14 1
e 8 3
e 7 9
e 13 9
e 10 12
e 13 5
e 6 2
e 5 1
e 2 11
e 10 6
e 15 4
e 15 5
e 3 3
e 7 2
e 3 11
e 4 14
e 14 7
e 6 6
e 13 7
e 6 3
e 10 4
e 9 11
e 4 9
e 1 7
e 2 3
e 13 10
e 12 8
e 8 2
e 13 12
e 1 13
e 5 8
e 1 9
e 7 8
e 12 6
e 14 14
e 6 5
e 15 3
e 14 15
e 1 1
e 1 15
e 12 5
e 13 3
e 5 10
